NAME: tsp29.tsp
COMMENT: Eric Albuquerque e Álvaro Freire - método utilizado: Christofides
TYPE: TOUR
DIMENSION: 29
TOTAL_WEIGHT: 30587
TOUR_SECTION
1
2
6
8
10
11
15
19
22
23
29
28
26
25
27
24
16
20
21
18
17
14
13
12
9
7
3
4
5
EOF
